NAME: tsp45_14
COMMENT: 45-tsp problem (Padberg/Rinaldi)
TYPE: TSP
DIMENSION: 45
EDGE_WEIGHT_TYPE : EUC_2D
NODE_COORD_SECTION
1 31 9
2 22 36
3 18 40
4 32 3
5 1 17
6 2 6
7 10 13
8 24 15
9 35 14
10 32 13
11 15 23
12 8 3
13 31 31
14 13 38
15 16 7
16 17 24
17 11 10
18 22 15
19 1 21
20 30 29
21 23 25
22 13 40
23 5 12
24 40 39
25 11 30
26 37 35
27 28 18
28 31 34
29 27 37
30 21 36
31 11 38
32 39 9
33 32 20
34 6 9
35 5 4
36 32 31
37 30 14
38 26 5
39 25 18
40 32 25
41 7 33
42 9 17
43 0 35
44 8 0
45 34 2
